
letting r = 10
letting n = 10

letting demand =
        [[0,1,1,1,0,0,0,0,0,1],
         [0,0,0,0,0,0,1,1,0,0],
         [0,0,0,1,0,1,0,0,1,1],
         [0,0,0,0,0,0,0,0,0,0],
         [0,0,0,0,0,1,1,0,0,0],
         [0,0,0,0,0,0,1,1,0,0],
         [0,0,0,0,0,0,0,0,0,0],
         [0,0,0,0,0,0,0,0,0,0],
         [0,0,0,0,0,0,0,0,0,0],
         [0,0,0,0,0,0,0,0,0,0]]


letting capacity_nodes be [5, 1, 5, 1, 5, 2, 1, 4, 5, 2]